# Solution for model GlobalModelIlpFixed
# Objective value = 1.7392399839093715e+00
a[0,0,16] 1
a[0,0,19] 0
a[0,0,28] 0
a[0,0,29] 0
a[0,0,31] 0
a[0,0,32] 0
a[0,0,34] 0
a[0,0,39] 0
a[0,0,40] 0
a[0,0,43] 0
a[0,0,44] 0
a[0,0,45] 0
a[0,0,48] 0
a[0,0,53] 0
a[0,0,56] 0
a[0,0,60] 0
a[0,0,66] 0
a[0,0,68] 0
a[0,0,73] 0
a[0,0,74] 0
a[0,0,76] 0
a[0,0,77] 0
a[0,0,78] 0
a[0,0,79] 0
a[0,0,80] 0
a[0,0,82] 0
a[0,0,83] 0
a[0,0,86] 0
a[0,0,87] 0
a[0,0,88] 0
a[0,0,91] 0
a[0,0,133] 0
a[0,0,135] 0
a[0,0,141] 0
a[0,0,151] 0
a[0,0,177] 0
a[0,0,181] 0
a[0,0,193] 0
a[0,0,194] 0
a[0,0,195] 0
a[0,0,200] 0
a[0,0,250] 0
a[0,0,256] 0
a[0,1,19] 0
a[0,1,28] 0
a[0,1,29] 0
a[0,1,31] 0
a[0,1,32] 0
a[0,1,34] 0
a[0,1,39] 0
a[0,1,40] 0
a[0,1,43] 0
a[0,1,44] 0
a[0,1,45] 0
a[0,1,48] 0
a[0,1,53] 0
a[0,1,56] 0
a[0,1,60] 0
a[0,1,66] 0
a[0,1,68] 0
a[0,1,73] 0
a[0,1,74] 0
a[0,1,76] 0
a[0,1,77] 0
a[0,1,78] 0
a[0,1,79] 0
a[0,1,80] 0
a[0,1,82] 0
a[0,1,83] 0
a[0,1,86] 0
a[0,1,87] 0
a[0,1,88] 0
a[0,1,91] 0
a[0,1,133] 0
a[0,1,135] 0
a[0,1,141] 0
a[0,1,151] 0
a[0,1,177] 0
a[0,1,181] 0
a[0,1,193] 0
a[0,1,194] 0
a[0,1,195] 0
a[0,1,200] 0
a[0,1,250] 0
a[0,1,256] 0
a[1,0,68] 0
a[1,0,73] 0
a[1,0,74] 0
a[1,0,76] 0
a[1,0,77] 0
a[1,0,78] 0
a[1,0,79] 0
a[1,0,80] 0
a[1,0,82] 0
a[1,0,83] 0
a[1,0,86] 0
a[1,0,87] 0
a[1,0,88] 1
a[1,0,91] 0
a[1,0,133] 0
a[1,0,135] 0
a[1,0,141] 0
a[1,0,151] 0
a[1,0,177] 0
a[1,0,181] 0
a[1,0,193] 0
a[1,0,194] 0
a[1,0,195] 0
a[1,0,200] 0
a[1,0,250] 0
a[1,0,256] 0
a[1,1,29] 0
a[1,1,31] 0
a[1,1,32] 0
a[1,1,34] 0
a[1,1,39] 0
a[1,1,40] 0
a[1,1,43] 0
a[1,1,44] 0
a[1,1,45] 0
a[1,1,48] 0
a[1,1,53] 0
a[1,1,56] 0
a[1,1,60] 0
a[1,1,66] 0
a[1,1,68] 0
a[1,1,73] 0
a[1,1,74] 0
a[1,1,76] 0
a[1,1,77] 0
a[1,1,78] 0
a[1,1,79] 0
a[1,1,80] 0
a[1,1,82] 0
a[1,1,83] 0
a[1,1,86] 0
a[1,1,87] 0
a[1,1,88] 0
a[1,1,91] 0
a[1,1,133] 0
a[1,1,135] 0
a[1,1,141] 0
a[1,1,151] 0
a[1,1,177] 0
a[1,1,181] 0
a[1,1,193] 0
a[1,1,194] 0
a[1,1,195] 0
a[1,1,200] 0
a[1,1,250] 0
a[1,1,256] 0
a[2,0,86] 0
a[2,0,87] 0
a[2,0,88] 1
a[2,0,91] 0
a[2,0,133] 0
a[2,0,135] 0
a[2,0,141] 0
a[2,0,151] 0
a[2,0,177] 0
a[2,0,181] 0
a[2,0,193] 0
a[2,0,194] 0
a[2,0,195] 0
a[2,0,200] 0
a[2,0,250] 0
a[2,0,256] 0
a[2,1,32] 0
a[2,1,34] 0
a[2,1,39] 0
a[2,1,40] 0
a[2,1,43] 0
a[2,1,44] 0
a[2,1,45] 0
a[2,1,48] 0
a[2,1,53] 0
a[2,1,56] 0
a[2,1,60] 0
a[2,1,66] 0
a[2,1,68] 0
a[2,1,73] 0
a[2,1,74] 0
a[2,1,76] 0
a[2,1,77] 0
a[2,1,78] 0
a[2,1,79] 0
a[2,1,80] 0
a[2,1,82] 0
a[2,1,83] 0
a[2,1,86] 0
a[2,1,87] 0
a[2,1,88] 0
a[2,1,91] 0
a[2,1,133] 0
a[2,1,135] 0
a[2,1,141] 0
a[2,1,151] 0
a[2,1,177] 0
a[2,1,181] 0
a[2,1,193] 0
a[2,1,194] 0
a[2,1,195] 0
a[2,1,200] 0
a[2,1,250] 0
a[2,1,256] 0
a[3,0,73] 0
a[3,0,74] 0
a[3,0,76] 0
a[3,0,77] 0
a[3,0,78] 0
a[3,0,79] 0
a[3,0,80] 0
a[3,0,82] 0
a[3,0,83] 0
a[3,0,86] 0
a[3,0,87] 0
a[3,0,88] 0
a[3,0,91] 0
a[3,0,133] 0
a[3,0,135] 0
a[3,0,141] 0
a[3,0,151] 0
a[3,0,177] 0
a[3,0,181] 0
a[3,0,193] 0
a[3,0,194] 0
a[3,0,195] 0
a[3,0,200] 0
a[3,0,250] 0
a[3,0,256] 0
a[3,1,40] 0
a[3,1,43] 1
a[3,1,44] 0
a[3,1,45] 0
a[3,1,48] 0
a[3,1,53] 0
a[3,1,56] 0
a[3,1,60] 0
a[3,1,66] 0
a[3,1,68] 0
a[3,1,73] 0
a[3,1,74] 0
a[3,1,76] 0
a[3,1,77] 0
a[3,1,78] 0
a[3,1,79] 0
a[3,1,80] 0
a[3,1,82] 0
a[3,1,83] 0
a[3,1,86] 0
a[3,1,87] 0
a[3,1,88] 0
a[3,1,91] 0
a[3,1,133] 0
a[3,1,135] 0
a[3,1,141] 0
a[3,1,151] 0
a[3,1,177] 0
a[3,1,181] 0
a[3,1,193] 0
a[3,1,194] 0
a[3,1,195] 0
a[3,1,200] 0
a[3,1,250] 0
a[3,1,256] 0
a[4,0,177] 0
a[4,0,181] 0
a[4,0,193] 0
a[4,0,194] 0
a[4,0,195] 0
a[4,0,200] 0
a[4,0,250] 0
a[4,0,256] 0
a[4,1,91] 0
a[4,1,133] 0
a[4,1,135] 0
a[4,1,141] 0
a[4,1,151] 0
a[4,1,177] 0
a[4,1,181] 0
a[4,1,193] 0
a[4,1,194] 1
a[4,1,195] 0
a[4,1,200] 0
a[4,1,250] 0
a[4,1,256] 0
a[5,0,10] 0
a[5,0,11] 0
a[5,0,16] 1
a[5,0,19] 0
a[5,0,28] 0
a[5,0,29] 0
a[5,0,31] 0
a[5,0,32] 0
a[5,0,34] 0
a[5,0,39] 0
a[5,0,40] 0
a[5,0,43] 0
a[5,0,44] 0
a[5,0,45] 0
a[5,0,48] 0
a[5,0,53] 0
a[5,0,56] 0
a[5,0,60] 0
a[5,0,66] 0
a[5,0,68] 0
a[5,0,73] 0
a[5,0,74] 0
a[5,0,76] 0
a[5,0,77] 0
a[5,0,78] 0
a[5,0,79] 0
a[5,0,80] 0
a[5,0,82] 0
a[5,0,83] 0
a[5,0,86] 0
a[5,0,87] 0
a[5,0,88] 0
a[5,0,91] 0
a[5,0,133] 0
a[5,0,135] 0
a[5,0,141] 0
a[5,0,151] 0
a[5,0,177] 0
a[5,0,181] 0
a[5,0,193] 0
a[5,0,194] 0
a[5,0,195] 0
a[5,0,200] 0
a[5,0,250] 0
a[5,0,256] 0
a[5,1,5] 0
a[5,1,6] 0
a[5,1,7] 0
a[5,1,10] 0
a[5,1,11] 0
a[5,1,16] 0
a[5,1,19] 0
a[5,1,28] 0
a[5,1,29] 0
a[5,1,31] 0
a[5,1,32] 0
a[5,1,34] 0
a[5,1,39] 0
a[5,1,40] 0
a[5,1,43] 0
a[5,1,44] 0
a[5,1,45] 0
a[5,1,48] 0
a[5,1,53] 0
a[5,1,56] 0
a[5,1,60] 0
a[5,1,66] 0
a[5,1,68] 0
a[5,1,73] 0
a[5,1,74] 0
a[5,1,76] 0
a[5,1,77] 0
a[5,1,78] 0
a[5,1,79] 0
a[5,1,80] 0
a[5,1,82] 0
a[5,1,83] 0
a[5,1,86] 0
a[5,1,87] 0
a[5,1,88] 0
a[5,1,91] 0
a[5,1,133] 0
a[5,1,135] 0
a[5,1,141] 0
a[5,1,151] 0
a[5,1,177] 0
a[5,1,181] 0
a[5,1,193] 0
a[5,1,194] 0
a[5,1,195] 0
a[5,1,200] 0
a[5,1,250] 0
a[5,1,256] 0
a[6,0,78] 0
a[6,0,79] 0
a[6,0,80] 0
a[6,0,82] 0
a[6,0,83] 0
a[6,0,86] 0
a[6,0,87] 0
a[6,0,88] 0
a[6,0,91] 0
a[6,0,133] 0
a[6,0,135] 0
a[6,0,141] 0
a[6,0,151] 0
a[6,0,177] 0
a[6,0,181] 0
a[6,0,193] 0
a[6,0,194] 0
a[6,0,195] 0
a[6,0,200] 0
a[6,0,250] 0
a[6,0,256] 0
a[6,1,87] 0
a[6,1,88] 1
a[6,1,91] 0
a[6,1,133] 0
a[6,1,135] 0
a[6,1,141] 0
a[6,1,151] 0
a[6,1,177] 0
a[6,1,181] 0
a[6,1,193] 0
a[6,1,194] 0
a[6,1,195] 0
a[6,1,200] 0
a[6,1,250] 0
a[6,1,256] 0
a[7,0,141] 0
a[7,0,151] 0
a[7,0,177] 0
a[7,0,181] 0
a[7,0,193] 0
a[7,0,194] 1
a[7,0,195] 0
a[7,0,200] 0
a[7,0,250] 0
a[7,0,256] 0
a[7,1,66] 0
a[7,1,68] 0
a[7,1,73] 0
a[7,1,74] 0
a[7,1,76] 0
a[7,1,77] 0
a[7,1,78] 0
a[7,1,79] 0
a[7,1,80] 0
a[7,1,82] 0
a[7,1,83] 0
a[7,1,86] 0
a[7,1,87] 0
a[7,1,88] 0
a[7,1,91] 0
a[7,1,133] 0
a[7,1,135] 0
a[7,1,141] 0
a[7,1,151] 0
a[7,1,177] 0
a[7,1,181] 0
a[7,1,193] 0
a[7,1,194] 0
a[7,1,195] 0
a[7,1,200] 0
a[7,1,250] 0
a[7,1,256] 0
a[8,0,91] 0
a[8,0,133] 0
a[8,0,135] 0
a[8,0,141] 0
a[8,0,151] 0
a[8,0,177] 0
a[8,0,181] 0
a[8,0,193] 0
a[8,0,194] 0
a[8,0,195] 0
a[8,0,200] 0
a[8,0,250] 0
a[8,0,256] 0
a[8,1,28] 0
a[8,1,29] 0
a[8,1,31] 0
a[8,1,32] 0
a[8,1,34] 0
a[8,1,39] 0
a[8,1,40] 0
a[8,1,43] 1
a[8,1,44] 0
a[8,1,45] 0
a[8,1,48] 0
a[8,1,53] 0
a[8,1,56] 0
a[8,1,60] 0
a[8,1,66] 0
a[8,1,68] 0
a[8,1,73] 0
a[8,1,74] 0
a[8,1,76] 0
a[8,1,77] 0
a[8,1,78] 0
a[8,1,79] 0
a[8,1,80] 0
a[8,1,82] 0
a[8,1,83] 0
a[8,1,86] 0
a[8,1,87] 0
a[8,1,88] 0
a[8,1,91] 0
a[8,1,133] 0
a[8,1,135] 0
a[8,1,141] 0
a[8,1,151] 0
a[8,1,177] 0
a[8,1,181] 0
a[8,1,193] 0
a[8,1,194] 0
a[8,1,195] 0
a[8,1,200] 0
a[8,1,250] 0
a[8,1,256] 0
a[9,0,250] 0
a[9,0,256] 1
a[9,1,73] 0
a[9,1,74] 0
a[9,1,76] 0
a[9,1,77] 0
a[9,1,78] 0
a[9,1,79] 0
a[9,1,80] 0
a[9,1,82] 0
a[9,1,83] 0
a[9,1,86] 0
a[9,1,87] 0
a[9,1,88] 0
a[9,1,91] 0
a[9,1,133] 0
a[9,1,135] 0
a[9,1,141] 0
a[9,1,151] 0
a[9,1,177] 0
a[9,1,181] 0
a[9,1,193] 0
a[9,1,194] 0
a[9,1,195] 0
a[9,1,200] 0
a[9,1,250] 0
a[9,1,256] 0
a[10,0,195] 0
a[10,0,200] 0
a[10,0,250] 0
a[10,0,256] 1
a[10,1,60] 0
a[10,1,66] 0
a[10,1,68] 0
a[10,1,73] 0
a[10,1,74] 0
a[10,1,76] 0
a[10,1,77] 0
a[10,1,78] 0
a[10,1,79] 0
a[10,1,80] 0
a[10,1,82] 0
a[10,1,83] 0
a[10,1,86] 0
a[10,1,87] 0
a[10,1,88] 0
a[10,1,91] 0
a[10,1,133] 0
a[10,1,135] 0
a[10,1,141] 0
a[10,1,151] 0
a[10,1,177] 0
a[10,1,181] 0
a[10,1,193] 0
a[10,1,194] 0
a[10,1,195] 0
a[10,1,200] 0
a[10,1,250] 0
a[10,1,256] 0
a[11,0,56] 0
a[11,0,60] 0
a[11,0,66] 0
a[11,0,68] 0
a[11,0,73] 0
a[11,0,74] 0
a[11,0,76] 0
a[11,0,77] 0
a[11,0,78] 0
a[11,0,79] 0
a[11,0,80] 0
a[11,0,82] 0
a[11,0,83] 0
a[11,0,86] 0
a[11,0,87] 0
a[11,0,88] 0
a[11,0,91] 0
a[11,0,133] 0
a[11,0,135] 0
a[11,0,141] 0
a[11,0,151] 0
a[11,0,177] 0
a[11,0,181] 0
a[11,0,193] 0
a[11,0,194] 0
a[11,0,195] 0
a[11,0,200] 0
a[11,0,250] 0
a[11,0,256] 0
a[11,1,29] 0
a[11,1,31] 0
a[11,1,32] 0
a[11,1,34] 0
a[11,1,39] 0
a[11,1,40] 0
a[11,1,43] 0
a[11,1,44] 0
a[11,1,45] 0
a[11,1,48] 0
a[11,1,53] 0
a[11,1,56] 0
a[11,1,60] 0
a[11,1,66] 0
a[11,1,68] 0
a[11,1,73] 0
a[11,1,74] 0
a[11,1,76] 0
a[11,1,77] 0
a[11,1,78] 0
a[11,1,79] 0
a[11,1,80] 0
a[11,1,82] 0
a[11,1,83] 0
a[11,1,86] 0
a[11,1,87] 0
a[11,1,88] 0
a[11,1,91] 0
a[11,1,133] 0
a[11,1,135] 0
a[11,1,141] 0
a[11,1,151] 0
a[11,1,177] 0
a[11,1,181] 0
a[11,1,193] 0
a[11,1,194] 1
a[11,1,195] 0
a[11,1,200] 0
a[11,1,250] 0
a[11,1,256] 0
a[12,0,193] 0
a[12,0,194] 0
a[12,0,195] 0
a[12,0,200] 0
a[12,0,250] 0
a[12,0,256] 0
a[12,1,82] 0
a[12,1,83] 0
a[12,1,86] 0
a[12,1,87] 0
a[12,1,88] 0
a[12,1,91] 0
a[12,1,133] 0
a[12,1,135] 0
a[12,1,141] 0
a[12,1,151] 0
a[12,1,177] 0
a[12,1,181] 0
a[12,1,193] 0
a[12,1,194] 0
a[12,1,195] 0
a[12,1,200] 0
a[12,1,250] 0
a[12,1,256] 1
a[13,0,43] 1
a[13,0,44] 0
a[13,0,45] 0
a[13,0,48] 0
a[13,0,53] 0
a[13,0,56] 0
a[13,0,60] 0
a[13,0,66] 0
a[13,0,68] 0
a[13,0,73] 0
a[13,0,74] 0
a[13,0,76] 0
a[13,0,77] 0
a[13,0,78] 0
a[13,0,79] 0
a[13,0,80] 0
a[13,0,82] 0
a[13,0,83] 0
a[13,0,86] 0
a[13,0,87] 0
a[13,0,88] 0
a[13,0,91] 0
a[13,0,133] 0
a[13,0,135] 0
a[13,0,141] 0
a[13,0,151] 0
a[13,0,177] 0
a[13,0,181] 0
a[13,0,193] 0
a[13,0,194] 0
a[13,0,195] 0
a[13,0,200] 0
a[13,0,250] 0
a[13,0,256] 0
a[13,1,31] 0
a[13,1,32] 0
a[13,1,34] 0
a[13,1,39] 0
a[13,1,40] 0
a[13,1,43] 0
a[13,1,44] 0
a[13,1,45] 0
a[13,1,48] 0
a[13,1,53] 0
a[13,1,56] 0
a[13,1,60] 0
a[13,1,66] 0
a[13,1,68] 0
a[13,1,73] 0
a[13,1,74] 0
a[13,1,76] 0
a[13,1,77] 0
a[13,1,78] 0
a[13,1,79] 0
a[13,1,80] 0
a[13,1,82] 0
a[13,1,83] 0
a[13,1,86] 0
a[13,1,87] 0
a[13,1,88] 0
a[13,1,91] 0
a[13,1,133] 0
a[13,1,135] 0
a[13,1,141] 0
a[13,1,151] 0
a[13,1,177] 0
a[13,1,181] 0
a[13,1,193] 0
a[13,1,194] 0
a[13,1,195] 0
a[13,1,200] 0
a[13,1,250] 0
a[13,1,256] 0
a[14,0,82] 0
a[14,0,83] 0
a[14,0,86] 0
a[14,0,87] 0
a[14,0,88] 1
a[14,0,91] 0
a[14,0,133] 0
a[14,0,135] 0
a[14,0,141] 0
a[14,0,151] 0
a[14,0,177] 0
a[14,0,181] 0
a[14,0,193] 0
a[14,0,194] 0
a[14,0,195] 0
a[14,0,200] 0
a[14,0,250] 0
a[14,0,256] 0
a[14,1,56] 0
a[14,1,60] 0
a[14,1,66] 0
a[14,1,68] 0
a[14,1,73] 0
a[14,1,74] 0
a[14,1,76] 0
a[14,1,77] 0
a[14,1,78] 0
a[14,1,79] 0
a[14,1,80] 0
a[14,1,82] 0
a[14,1,83] 0
a[14,1,86] 0
a[14,1,87] 0
a[14,1,88] 0
a[14,1,91] 0
a[14,1,133] 0
a[14,1,135] 0
a[14,1,141] 0
a[14,1,151] 0
a[14,1,177] 0
a[14,1,181] 0
a[14,1,193] 0
a[14,1,194] 0
a[14,1,195] 0
a[14,1,200] 0
a[14,1,250] 0
a[14,1,256] 0
a[15,0,181] 0
a[15,0,193] 0
a[15,0,194] 1
a[15,0,195] 0
a[15,0,200] 0
a[15,0,250] 0
a[15,0,256] 0
a[15,1,53] 0
a[15,1,56] 0
a[15,1,60] 0
a[15,1,66] 0
a[15,1,68] 0
a[15,1,73] 0
a[15,1,74] 0
a[15,1,76] 0
a[15,1,77] 0
a[15,1,78] 0
a[15,1,79] 0
a[15,1,80] 0
a[15,1,82] 0
a[15,1,83] 0
a[15,1,86] 0
a[15,1,87] 0
a[15,1,88] 0
a[15,1,91] 0
a[15,1,133] 0
a[15,1,135] 0
a[15,1,141] 0
a[15,1,151] 0
a[15,1,177] 0
a[15,1,181] 0
a[15,1,193] 0
a[15,1,194] 0
a[15,1,195] 0
a[15,1,200] 0
a[15,1,250] 0
a[15,1,256] 0
a[16,0,39] 0
a[16,0,40] 0
a[16,0,43] 1
a[16,0,44] 0
a[16,0,45] 0
a[16,0,48] 0
a[16,0,53] 0
a[16,0,56] 0
a[16,0,60] 0
a[16,0,66] 0
a[16,0,68] 0
a[16,0,73] 0
a[16,0,74] 0
a[16,0,76] 0
a[16,0,77] 0
a[16,0,78] 0
a[16,0,79] 0
a[16,0,80] 0
a[16,0,82] 0
a[16,0,83] 0
a[16,0,86] 0
a[16,0,87] 0
a[16,0,88] 0
a[16,0,91] 0
a[16,0,133] 0
a[16,0,135] 0
a[16,0,141] 0
a[16,0,151] 0
a[16,0,177] 0
a[16,0,181] 0
a[16,0,193] 0
a[16,0,194] 0
a[16,0,195] 0
a[16,0,200] 0
a[16,0,250] 0
a[16,0,256] 0
a[16,1,11] 0
a[16,1,16] 0
a[16,1,19] 0
a[16,1,28] 0
a[16,1,29] 0
a[16,1,31] 0
a[16,1,32] 0
a[16,1,34] 0
a[16,1,39] 0
a[16,1,40] 0
a[16,1,43] 0
a[16,1,44] 0
a[16,1,45] 0
a[16,1,48] 0
a[16,1,53] 0
a[16,1,56] 0
a[16,1,60] 0
a[16,1,66] 0
a[16,1,68] 0
a[16,1,73] 0
a[16,1,74] 0
a[16,1,76] 0
a[16,1,77] 0
a[16,1,78] 0
a[16,1,79] 0
a[16,1,80] 0
a[16,1,82] 0
a[16,1,83] 0
a[16,1,86] 0
a[16,1,87] 0
a[16,1,88] 0
a[16,1,91] 0
a[16,1,133] 0
a[16,1,135] 0
a[16,1,141] 0
a[16,1,151] 0
a[16,1,177] 0
a[16,1,181] 0
a[16,1,193] 0
a[16,1,194] 0
a[16,1,195] 0
a[16,1,200] 0
a[16,1,250] 0
a[16,1,256] 0
a[17,0,79] 1
a[17,0,80] 0
a[17,0,82] 0
a[17,0,83] 0
a[17,0,86] 0
a[17,0,87] 0
a[17,0,88] 0
a[17,0,91] 0
a[17,0,133] 0
a[17,0,135] 0
a[17,0,141] 0
a[17,0,151] 0
a[17,0,177] 0
a[17,0,181] 0
a[17,0,193] 0
a[17,0,194] 0
a[17,0,195] 0
a[17,0,200] 0
a[17,0,250] 0
a[17,0,256] 0
a[17,1,80] 0
a[17,1,82] 0
a[17,1,83] 0
a[17,1,86] 0
a[17,1,87] 0
a[17,1,88] 0
a[17,1,91] 0
a[17,1,133] 0
a[17,1,135] 0
a[17,1,141] 0
a[17,1,151] 0
a[17,1,177] 0
a[17,1,181] 0
a[17,1,193] 0
a[17,1,194] 0
a[17,1,195] 0
a[17,1,200] 0
a[17,1,250] 0
a[17,1,256] 0
a[18,0,133] 0
a[18,0,135] 0
a[18,0,141] 0
a[18,0,151] 0
a[18,0,177] 0
a[18,0,181] 0
a[18,0,193] 0
a[18,0,194] 1
a[18,0,195] 0
a[18,0,200] 0
a[18,0,250] 0
a[18,0,256] 0
a[18,1,48] 0
a[18,1,53] 0
a[18,1,56] 0
a[18,1,60] 0
a[18,1,66] 0
a[18,1,68] 0
a[18,1,73] 0
a[18,1,74] 0
a[18,1,76] 0
a[18,1,77] 0
a[18,1,78] 0
a[18,1,79] 0
a[18,1,80] 0
a[18,1,82] 0
a[18,1,83] 0
a[18,1,86] 0
a[18,1,87] 0
a[18,1,88] 0
a[18,1,91] 0
a[18,1,133] 0
a[18,1,135] 0
a[18,1,141] 0
a[18,1,151] 0
a[18,1,177] 0
a[18,1,181] 0
a[18,1,193] 0
a[18,1,194] 0
a[18,1,195] 0
a[18,1,200] 0
a[18,1,250] 0
a[18,1,256] 0
a[19,0,151] 0
a[19,0,177] 0
a[19,0,181] 0
a[19,0,193] 0
a[19,0,194] 0
a[19,0,195] 0
a[19,0,200] 0
a[19,0,250] 0
a[19,0,256] 0
a[19,1,45] 0
a[19,1,48] 0
a[19,1,53] 0
a[19,1,56] 0
a[19,1,60] 0
a[19,1,66] 0
a[19,1,68] 0
a[19,1,73] 0
a[19,1,74] 0
a[19,1,76] 0
a[19,1,77] 0
a[19,1,78] 0
a[19,1,79] 0
a[19,1,80] 0
a[19,1,82] 0
a[19,1,83] 0
a[19,1,86] 0
a[19,1,87] 0
a[19,1,88] 0
a[19,1,91] 0
a[19,1,133] 0
a[19,1,135] 0
a[19,1,141] 0
a[19,1,151] 0
a[19,1,177] 0
a[19,1,181] 0
a[19,1,193] 0
a[19,1,194] 0
a[19,1,195] 0
a[19,1,200] 0
a[19,1,250] 0
a[19,1,256] 1
a[20,0,88] 1
a[20,0,91] 0
a[20,0,133] 0
a[20,0,135] 0
a[20,0,141] 0
a[20,0,151] 0
a[20,0,177] 0
a[20,0,181] 0
a[20,0,193] 0
a[20,0,194] 0
a[20,0,195] 0
a[20,0,200] 0
a[20,0,250] 0
a[20,0,256] 0
a[20,1,44] 0
a[20,1,45] 0
a[20,1,48] 0
a[20,1,53] 0
a[20,1,56] 0
a[20,1,60] 0
a[20,1,66] 0
a[20,1,68] 0
a[20,1,73] 0
a[20,1,74] 0
a[20,1,76] 0
a[20,1,77] 0
a[20,1,78] 0
a[20,1,79] 0
a[20,1,80] 0
a[20,1,82] 0
a[20,1,83] 0
a[20,1,86] 0
a[20,1,87] 0
a[20,1,88] 0
a[20,1,91] 0
a[20,1,133] 0
a[20,1,135] 0
a[20,1,141] 0
a[20,1,151] 0
a[20,1,177] 0
a[20,1,181] 0
a[20,1,193] 0
a[20,1,194] 0
a[20,1,195] 0
a[20,1,200] 0
a[20,1,250] 0
a[20,1,256] 0
a[21,0,194] 1
a[21,0,195] 0
a[21,0,200] 0
a[21,0,250] 0
a[21,0,256] 0
a[21,1,74] 0
a[21,1,76] 0
a[21,1,77] 0
a[21,1,78] 0
a[21,1,79] 0
a[21,1,80] 0
a[21,1,82] 0
a[21,1,83] 0
a[21,1,86] 0
a[21,1,87] 0
a[21,1,88] 0
a[21,1,91] 0
a[21,1,133] 0
a[21,1,135] 0
a[21,1,141] 0
a[21,1,151] 0
a[21,1,177] 0
a[21,1,181] 0
a[21,1,193] 0
a[21,1,194] 0
a[21,1,195] 0
a[21,1,200] 0
a[21,1,250] 0
a[21,1,256] 0
a[22,0,200] 0
a[22,0,250] 0
a[22,0,256] 0
a[22,1,77] 0
a[22,1,78] 0
a[22,1,79] 0
a[22,1,80] 0
a[22,1,82] 0
a[22,1,83] 0
a[22,1,86] 0
a[22,1,87] 0
a[22,1,88] 1
a[22,1,91] 0
a[22,1,133] 0
a[22,1,135] 0
a[22,1,141] 0
a[22,1,151] 0
a[22,1,177] 0
a[22,1,181] 0
a[22,1,193] 0
a[22,1,194] 0
a[22,1,195] 0
a[22,1,200] 0
a[22,1,250] 0
a[22,1,256] 0
a[23,0,256] 1
a[23,1,83] 0
a[23,1,86] 0
a[23,1,87] 0
a[23,1,88] 0
a[23,1,91] 0
a[23,1,133] 0
a[23,1,135] 0
a[23,1,141] 0
a[23,1,151] 0
a[23,1,177] 0
a[23,1,181] 0
a[23,1,193] 0
a[23,1,194] 0
a[23,1,195] 0
a[23,1,200] 0
a[23,1,250] 0
a[23,1,256] 0
a[24,0,19] 0
a[24,0,28] 0
a[24,0,29] 0
a[24,0,31] 0
a[24,0,32] 0
a[24,0,34] 0
a[24,0,39] 0
a[24,0,40] 0
a[24,0,43] 1
a[24,0,44] 0
a[24,0,45] 0
a[24,0,48] 0
a[24,0,53] 0
a[24,0,56] 0
a[24,0,60] 0
a[24,0,66] 0
a[24,0,68] 0
a[24,0,73] 0
a[24,0,74] 0
a[24,0,76] 0
a[24,0,77] 0
a[24,0,78] 0
a[24,0,79] 0
a[24,0,80] 0
a[24,0,82] 0
a[24,0,83] 0
a[24,0,86] 0
a[24,0,87] 0
a[24,0,88] 0
a[24,0,91] 0
a[24,0,133] 0
a[24,0,135] 0
a[24,0,141] 0
a[24,0,151] 0
a[24,0,177] 0
a[24,0,181] 0
a[24,0,193] 0
a[24,0,194] 0
a[24,0,195] 0
a[24,0,200] 0
a[24,0,250] 0
a[24,0,256] 0
a[24,1,16] 0
a[24,1,19] 0
a[24,1,28] 0
a[24,1,29] 0
a[24,1,31] 0
a[24,1,32] 0
a[24,1,34] 0
a[24,1,39] 0
a[24,1,40] 0
a[24,1,43] 0
a[24,1,44] 0
a[24,1,45] 0
a[24,1,48] 0
a[24,1,53] 0
a[24,1,56] 0
a[24,1,60] 0
a[24,1,66] 0
a[24,1,68] 0
a[24,1,73] 0
a[24,1,74] 0
a[24,1,76] 0
a[24,1,77] 0
a[24,1,78] 0
a[24,1,79] 0
a[24,1,80] 0
a[24,1,82] 0
a[24,1,83] 0
a[24,1,86] 0
a[24,1,87] 0
a[24,1,88] 0
a[24,1,91] 0
a[24,1,133] 0
a[24,1,135] 0
a[24,1,141] 0
a[24,1,151] 0
a[24,1,177] 0
a[24,1,181] 0
a[24,1,193] 0
a[24,1,194] 0
a[24,1,195] 0
a[24,1,200] 0
a[24,1,250] 0
a[24,1,256] 0
a[25,0,34] 0
a[25,0,39] 0
a[25,0,40] 0
a[25,0,43] 1
a[25,0,44] 0
a[25,0,45] 0
a[25,0,48] 0
a[25,0,53] 0
a[25,0,56] 0
a[25,0,60] 0
a[25,0,66] 0
a[25,0,68] 0
a[25,0,73] 0
a[25,0,74] 0
a[25,0,76] 0
a[25,0,77] 0
a[25,0,78] 0
a[25,0,79] 0
a[25,0,80] 0
a[25,0,82] 0
a[25,0,83] 0
a[25,0,86] 0
a[25,0,87] 0
a[25,0,88] 0
a[25,0,91] 0
a[25,0,133] 0
a[25,0,135] 0
a[25,0,141] 0
a[25,0,151] 0
a[25,0,177] 0
a[25,0,181] 0
a[25,0,193] 0
a[25,0,194] 0
a[25,0,195] 0
a[25,0,200] 0
a[25,0,250] 0
a[25,0,256] 0
a[25,1,39] 0
a[25,1,40] 0
a[25,1,43] 0
a[25,1,44] 0
a[25,1,45] 0
a[25,1,48] 0
a[25,1,53] 0
a[25,1,56] 0
a[25,1,60] 0
a[25,1,66] 0
a[25,1,68] 0
a[25,1,73] 0
a[25,1,74] 0
a[25,1,76] 0
a[25,1,77] 0
a[25,1,78] 0
a[25,1,79] 0
a[25,1,80] 0
a[25,1,82] 0
a[25,1,83] 0
a[25,1,86] 0
a[25,1,87] 0
a[25,1,88] 0
a[25,1,91] 0
a[25,1,133] 0
a[25,1,135] 0
a[25,1,141] 0
a[25,1,151] 0
a[25,1,177] 0
a[25,1,181] 0
a[25,1,193] 0
a[25,1,194] 0
a[25,1,195] 0
a[25,1,200] 0
a[25,1,250] 0
a[25,1,256] 0
a[26,0,135] 0
a[26,0,141] 0
a[26,0,151] 0
a[26,0,177] 0
a[26,0,181] 0
a[26,0,193] 0
a[26,0,194] 0
a[26,0,195] 0
a[26,0,200] 0
a[26,0,250] 0
a[26,0,256] 1
a[26,1,76] 0
a[26,1,77] 0
a[26,1,78] 0
a[26,1,79] 0
a[26,1,80] 0
a[26,1,82] 0
a[26,1,83] 0
a[26,1,86] 0
a[26,1,87] 0
a[26,1,88] 0
a[26,1,91] 0
a[26,1,133] 0
a[26,1,135] 0
a[26,1,141] 0
a[26,1,151] 0
a[26,1,177] 0
a[26,1,181] 0
a[26,1,193] 0
a[26,1,194] 0
a[26,1,195] 0
a[26,1,200] 0
a[26,1,250] 0
a[26,1,256] 0
a[27,0,6] 0
a[27,0,7] 0
a[27,0,10] 0
a[27,0,11] 0
a[27,0,16] 1
a[27,0,19] 0
a[27,0,28] 0
a[27,0,29] 0
a[27,0,31] 0
a[27,0,32] 0
a[27,0,34] 0
a[27,0,39] 0
a[27,0,40] 0
a[27,0,43] 0
a[27,0,44] 0
a[27,0,45] 0
a[27,0,48] 0
a[27,0,53] 0
a[27,0,56] 0
a[27,0,60] 0
a[27,0,66] 0
a[27,0,68] 0
a[27,0,73] 0
a[27,0,74] 0
a[27,0,76] 0
a[27,0,77] 0
a[27,0,78] 0
a[27,0,79] 0
a[27,0,80] 0
a[27,0,82] 0
a[27,0,83] 0
a[27,0,86] 0
a[27,0,87] 0
a[27,0,88] 0
a[27,0,91] 0
a[27,0,133] 0
a[27,0,135] 0
a[27,0,141] 0
a[27,0,151] 0
a[27,0,177] 0
a[27,0,181] 0
a[27,0,193] 0
a[27,0,194] 0
a[27,0,195] 0
a[27,0,200] 0
a[27,0,250] 0
a[27,0,256] 0
a[27,1,7] 0
a[27,1,10] 0
a[27,1,11] 0
a[27,1,16] 0
a[27,1,19] 0
a[27,1,28] 0
a[27,1,29] 0
a[27,1,31] 0
a[27,1,32] 0
a[27,1,34] 0
a[27,1,39] 0
a[27,1,40] 0
a[27,1,43] 0
a[27,1,44] 0
a[27,1,45] 0
a[27,1,48] 0
a[27,1,53] 0
a[27,1,56] 0
a[27,1,60] 0
a[27,1,66] 0
a[27,1,68] 0
a[27,1,73] 0
a[27,1,74] 0
a[27,1,76] 0
a[27,1,77] 0
a[27,1,78] 0
a[27,1,79] 0
a[27,1,80] 0
a[27,1,82] 0
a[27,1,83] 0
a[27,1,86] 0
a[27,1,87] 0
a[27,1,88] 0
a[27,1,91] 0
a[27,1,133] 0
a[27,1,135] 0
a[27,1,141] 0
a[27,1,151] 0
a[27,1,177] 0
a[27,1,181] 0
a[27,1,193] 0
a[27,1,194] 0
a[27,1,195] 0
a[27,1,200] 0
a[27,1,250] 0
a[27,1,256] 0
x[5] 0
x[6] 0
x[7] 0
x[10] 0
x[11] 0
x[16] 1
x[19] 0
x[28] 0
x[29] 0
x[31] 0
x[32] 0
x[34] 0
x[39] 0
x[40] 0
x[43] 1
x[44] 0
x[45] 0
x[48] 0
x[53] 0
x[56] 0
x[60] 0
x[66] 0
x[68] 0
x[73] 0
x[74] 0
x[76] 0
x[77] 0
x[78] 0
x[79] 1
x[80] 0
x[82] 0
x[83] 0
x[86] 0
x[87] 0
x[88] 1
x[91] 0
x[133] 0
x[135] 0
x[141] 0
x[151] 0
x[177] 0
x[181] 0
x[193] 0
x[194] 1
x[195] 0
x[200] 0
x[250] 0
x[256] 1
B[5] 0
B[6] 0
B[7] 0
B[10] 0
B[11] 0
B[16] 4.5371978228994453e-01
B[19] 0
B[28] 0
B[29] 0
B[31] 0
B[32] 0
B[34] 0
B[39] 0
B[40] 0
B[43] 1.4869450649569258e+00
B[44] 0
B[45] 0
B[48] 0
B[53] 0
B[56] 0
B[60] 0
B[66] 0
B[68] 0
B[73] 0
B[74] 0
B[76] 0
B[77] 0
B[78] 0
B[79] 2.0707608280104794e-01
B[80] 0
B[82] 0
B[83] 0
B[86] 0
B[87] 0
B[88] 1.0979769203861673e+00
B[91] 0
B[133] 0
B[135] 0
B[141] 0
B[151] 0
B[177] 0
B[181] 0
B[193] 0
B[194] 6.6714534939339176e-01
B[195] 0
B[200] 0
B[250] 0
B[256] 1.3726690568746791e+00
